1, 34, 35, 42, 43, 51, 50, 48, 49, 41, 40, 38, 33, 1
1, 18, 7, 4, 6, 5, 9, 12, 11, 10, 13, 8, 3, 2, 16, 14, 1
1, 15, 52, 53, 22, 21, 27, 28, 29, 39, 20, 19, 1
1, 17, 26, 36, 31, 32, 24, 37, 47, 46, 45, 44, 25, 23, 30, 1
